sat
(
(define-fun sym1019 () String "K")
(define-fun sym1668 () String "G")
(define-fun sym1877 () String "K")
(define-fun sym551 () String "K")
(define-fun sym2090 () String "G")
(define-fun sym1455 () String "K")
(define-fun sym1232 () String "G")
(define-fun sym811 () String "G")
(define-fun sym2187 () String "A")
(define-fun sym209 () String "Y")
(define-fun sym161 () String "")
)
